p cnf 196 433
c node "figurePreN5-0-0-0-0" must have at least one color
1 2 3 4 0
c node "figurePreN5-0-0-1-0" must have at least one color
5 6 7 8 0
c node "figurePreN5-0-0-2-0" must have at least one color
9 10 11 12 0
c node "figurePreN5-0-0-3-0" must have at least one color
13 14 15 16 0
c node "figurePreN5-0-0-4-0" must have at least one color
17 18 19 20 0
c node "figurePreN5-0-0-5-0" must have at least one color
21 22 23 24 0
c node "figurePreN5-0-0-6-0" must have at least one color
25 26 27 28 0
c node "figurePreN5-0-0-7-0" must have at least one color
29 30 31 32 0
c node "figurePreN5-0-0-8-0" must have at least one color
33 34 35 36 0
c node "figurePreN5-0-0-9-0" must have at least one color
37 38 39 40 0
c node "figurePreN5-0-0-10-0" must have at least one color
41 42 43 44 0
c node "figurePreN5-0-0-11-0" must have at least one color
45 46 47 48 0
c node "figurePreN5-0-0-12-0" must have at least one color
49 50 51 52 0
c node "figurePreN5-0-1-1-0" must have at least one color
53 54 55 56 0
c node "figurePreN5-0-1-2-0" must have at least one color
57 58 59 60 0
c node "figurePreN5-0-1-3-0" must have at least one color
61 62 63 64 0
c node "figurePreN5-0-1-4-0" must have at least one color
65 66 67 68 0
c node "figurePreN5-0-1-5-0" must have at least one color
69 70 71 72 0
c node "figurePreN5-0-1-6-0" must have at least one color
73 74 75 76 0
c node "figurePreN5-0-1-7-0" must have at least one color
77 78 79 80 0
c node "figurePreN5-0-1-8-0" must have at least one color
81 82 83 84 0
c node "figurePreN5-0-1-9-0" must have at least one color
85 86 87 88 0
c node "figurePreN5-0-1-10-0" must have at least one color
89 90 91 92 0
c node "figurePreN5-0-1-11-0" must have at least one color
93 94 95 96 0
c node "figurePreN5-0-1-12-0" must have at least one color
97 98 99 100 0
c node "figurePreN5-1-0-0-0" must have at least one color
101 102 103 104 0
c node "figurePreN5-1-0-1-0" must have at least one color
105 106 107 108 0
c node "figurePreN5-1-0-2-0" must have at least one color
109 110 111 112 0
c node "figurePreN5-1-0-3-0" must have at least one color
113 114 115 116 0
c node "figurePreN5-1-0-5-0" must have at least one color
117 118 119 120 0
c node "figurePreN5-1-0-6-0" must have at least one color
121 122 123 124 0
c node "figurePreN5-1-0-7-0" must have at least one color
125 126 127 128 0
c node "figurePreN5-1-0-8-0" must have at least one color
129 130 131 132 0
c node "figurePreN5-1-0-9-0" must have at least one color
133 134 135 136 0
c node "figurePreN5-1-0-10-0" must have at least one color
137 138 139 140 0
c node "figurePreN5-1-0-11-0" must have at least one color
141 142 143 144 0
c node "figurePreN5-1-0-12-0" must have at least one color
145 146 147 148 0
c node "figurePreN5-1-1-1-0" must have at least one color
149 150 151 152 0
c node "figurePreN5-1-1-2-0" must have at least one color
153 154 155 156 0
c node "figurePreN5-1-1-3-0" must have at least one color
157 158 159 160 0
c node "figurePreN5-1-1-4-0" must have at least one color
161 162 163 164 0
c node "figurePreN5-1-1-5-0" must have at least one color
165 166 167 168 0
c node "figurePreN5-1-1-6-0" must have at least one color
169 170 171 172 0
c node "figurePreN5-1-1-7-0" must have at least one color
173 174 175 176 0
c node "figurePreN5-1-1-8-0" must have at least one color
177 178 179 180 0
c node "figurePreN5-1-1-9-0" must have at least one color
181 182 183 184 0
c node "figurePreN5-1-1-10-0" must have at least one color
185 186 187 188 0
c node "figurePreN5-1-1-11-0" must have at least one color
189 190 191 192 0
c node "figurePreN5-1-1-12-0" must have at least one color
193 194 195 196 0
c nodes "figurePreN5-0-0-0-0" and "figurePreN5-0-0-1-0" may not have the same color
-1 -5 0
-2 -6 0
-3 -7 0
-4 -8 0
c nodes "figurePreN5-0-0-0-0" and "figurePreN5-0-0-2-0" may not have the same color
-1 -9 0
-2 -10 0
-3 -11 0
-4 -12 0
c nodes "figurePreN5-0-0-0-0" and "figurePreN5-0-0-3-0" may not have the same color
-1 -13 0
-2 -14 0
-3 -15 0
-4 -16 0
c nodes "figurePreN5-0-0-0-0" and "figurePreN5-0-0-4-0" may not have the same color
-1 -17 0
-2 -18 0
-3 -19 0
-4 -20 0
c nodes "figurePreN5-0-0-0-0" and "figurePreN5-0-0-5-0" may not have the same color
-1 -21 0
-2 -22 0
-3 -23 0
-4 -24 0
c nodes "figurePreN5-0-0-0-0" and "figurePreN5-0-0-6-0" may not have the same color
-1 -25 0
-2 -26 0
-3 -27 0
-4 -28 0
c nodes "figurePreN5-0-0-0-0" and "figurePreN5-0-1-1-0" may not have the same color
-1 -53 0
-2 -54 0
-3 -55 0
-4 -56 0
c nodes "figurePreN5-0-0-0-0" and "figurePreN5-0-1-2-0" may not have the same color
-1 -57 0
-2 -58 0
-3 -59 0
-4 -60 0
c nodes "figurePreN5-0-0-0-0" and "figurePreN5-0-1-3-0" may not have the same color
-1 -61 0
-2 -62 0
-3 -63 0
-4 -64 0
c nodes "figurePreN5-0-0-0-0" and "figurePreN5-0-1-4-0" may not have the same color
-1 -65 0
-2 -66 0
-3 -67 0
-4 -68 0
c nodes "figurePreN5-0-0-0-0" and "figurePreN5-0-1-5-0" may not have the same color
-1 -69 0
-2 -70 0
-3 -71 0
-4 -72 0
c nodes "figurePreN5-0-0-0-0" and "figurePreN5-0-1-6-0" may not have the same color
-1 -73 0
-2 -74 0
-3 -75 0
-4 -76 0
c nodes "figurePreN5-0-0-1-0" and "figurePreN5-0-0-2-0" may not have the same color
-5 -9 0
-6 -10 0
-7 -11 0
-8 -12 0
c nodes "figurePreN5-0-0-1-0" and "figurePreN5-0-0-6-0" may not have the same color
-5 -25 0
-6 -26 0
-7 -27 0
-8 -28 0
c nodes "figurePreN5-0-0-1-0" and "figurePreN5-0-0-7-0" may not have the same color
-5 -29 0
-6 -30 0
-7 -31 0
-8 -32 0
c nodes "figurePreN5-0-0-1-0" and "figurePreN5-0-0-12-0" may not have the same color
-5 -49 0
-6 -50 0
-7 -51 0
-8 -52 0
c nodes "figurePreN5-0-0-2-0" and "figurePreN5-0-0-3-0" may not have the same color
-9 -13 0
-10 -14 0
-11 -15 0
-12 -16 0
c nodes "figurePreN5-0-0-2-0" and "figurePreN5-0-0-7-0" may not have the same color
-9 -29 0
-10 -30 0
-11 -31 0
-12 -32 0
c nodes "figurePreN5-0-0-2-0" and "figurePreN5-0-0-8-0" may not have the same color
-9 -33 0
-10 -34 0
-11 -35 0
-12 -36 0
c nodes "figurePreN5-0-0-3-0" and "figurePreN5-0-0-4-0" may not have the same color
-13 -17 0
-14 -18 0
-15 -19 0
-16 -20 0
c nodes "figurePreN5-0-0-3-0" and "figurePreN5-0-0-8-0" may not have the same color
-13 -33 0
-14 -34 0
-15 -35 0
-16 -36 0
c nodes "figurePreN5-0-0-3-0" and "figurePreN5-0-0-9-0" may not have the same color
-13 -37 0
-14 -38 0
-15 -39 0
-16 -40 0
c nodes "figurePreN5-0-0-4-0" and "figurePreN5-0-0-5-0" may not have the same color
-17 -21 0
-18 -22 0
-19 -23 0
-20 -24 0
c nodes "figurePreN5-0-0-4-0" and "figurePreN5-0-0-9-0" may not have the same color
-17 -37 0
-18 -38 0
-19 -39 0
-20 -40 0
c nodes "figurePreN5-0-0-4-0" and "figurePreN5-0-0-10-0" may not have the same color
-17 -41 0
-18 -42 0
-19 -43 0
-20 -44 0
c nodes "figurePreN5-0-0-4-0" and "figurePreN5-1-0-0-0" may not have the same color
-17 -101 0
-18 -102 0
-19 -103 0
-20 -104 0
c nodes "figurePreN5-0-0-4-0" and "figurePreN5-1-0-3-0" may not have the same color
-17 -113 0
-18 -114 0
-19 -115 0
-20 -116 0
c nodes "figurePreN5-0-0-4-0" and "figurePreN5-1-0-5-0" may not have the same color
-17 -117 0
-18 -118 0
-19 -119 0
-20 -120 0
c nodes "figurePreN5-0-0-4-0" and "figurePreN5-1-0-9-0" may not have the same color
-17 -133 0
-18 -134 0
-19 -135 0
-20 -136 0
c nodes "figurePreN5-0-0-4-0" and "figurePreN5-1-0-10-0" may not have the same color
-17 -137 0
-18 -138 0
-19 -139 0
-20 -140 0
c nodes "figurePreN5-0-0-5-0" and "figurePreN5-0-0-6-0" may not have the same color
-21 -25 0
-22 -26 0
-23 -27 0
-24 -28 0
c nodes "figurePreN5-0-0-5-0" and "figurePreN5-0-0-10-0" may not have the same color
-21 -41 0
-22 -42 0
-23 -43 0
-24 -44 0
c nodes "figurePreN5-0-0-5-0" and "figurePreN5-0-0-11-0" may not have the same color
-21 -45 0
-22 -46 0
-23 -47 0
-24 -48 0
c nodes "figurePreN5-0-0-6-0" and "figurePreN5-0-0-11-0" may not have the same color
-25 -45 0
-26 -46 0
-27 -47 0
-28 -48 0
c nodes "figurePreN5-0-0-6-0" and "figurePreN5-0-0-12-0" may not have the same color
-25 -49 0
-26 -50 0
-27 -51 0
-28 -52 0
c nodes "figurePreN5-0-1-1-0" and "figurePreN5-0-1-2-0" may not have the same color
-53 -57 0
-54 -58 0
-55 -59 0
-56 -60 0
c nodes "figurePreN5-0-1-1-0" and "figurePreN5-0-1-6-0" may not have the same color
-53 -73 0
-54 -74 0
-55 -75 0
-56 -76 0
c nodes "figurePreN5-0-1-1-0" and "figurePreN5-0-1-7-0" may not have the same color
-53 -77 0
-54 -78 0
-55 -79 0
-56 -80 0
c nodes "figurePreN5-0-1-1-0" and "figurePreN5-0-1-12-0" may not have the same color
-53 -97 0
-54 -98 0
-55 -99 0
-56 -100 0
c nodes "figurePreN5-0-1-2-0" and "figurePreN5-0-1-3-0" may not have the same color
-57 -61 0
-58 -62 0
-59 -63 0
-60 -64 0
c nodes "figurePreN5-0-1-2-0" and "figurePreN5-0-1-7-0" may not have the same color
-57 -77 0
-58 -78 0
-59 -79 0
-60 -80 0
c nodes "figurePreN5-0-1-2-0" and "figurePreN5-0-1-8-0" may not have the same color
-57 -81 0
-58 -82 0
-59 -83 0
-60 -84 0
c nodes "figurePreN5-0-1-3-0" and "figurePreN5-0-1-4-0" may not have the same color
-61 -65 0
-62 -66 0
-63 -67 0
-64 -68 0
c nodes "figurePreN5-0-1-3-0" and "figurePreN5-0-1-8-0" may not have the same color
-61 -81 0
-62 -82 0
-63 -83 0
-64 -84 0
c nodes "figurePreN5-0-1-3-0" and "figurePreN5-0-1-9-0" may not have the same color
-61 -85 0
-62 -86 0
-63 -87 0
-64 -88 0
c nodes "figurePreN5-0-1-4-0" and "figurePreN5-0-1-5-0" may not have the same color
-65 -69 0
-66 -70 0
-67 -71 0
-68 -72 0
c nodes "figurePreN5-0-1-4-0" and "figurePreN5-0-1-9-0" may not have the same color
-65 -85 0
-66 -86 0
-67 -87 0
-68 -88 0
c nodes "figurePreN5-0-1-4-0" and "figurePreN5-0-1-10-0" may not have the same color
-65 -89 0
-66 -90 0
-67 -91 0
-68 -92 0
c nodes "figurePreN5-0-1-5-0" and "figurePreN5-0-1-6-0" may not have the same color
-69 -73 0
-70 -74 0
-71 -75 0
-72 -76 0
c nodes "figurePreN5-0-1-5-0" and "figurePreN5-0-1-10-0" may not have the same color
-69 -89 0
-70 -90 0
-71 -91 0
-72 -92 0
c nodes "figurePreN5-0-1-5-0" and "figurePreN5-0-1-11-0" may not have the same color
-69 -93 0
-70 -94 0
-71 -95 0
-72 -96 0
c nodes "figurePreN5-0-1-6-0" and "figurePreN5-0-1-11-0" may not have the same color
-73 -93 0
-74 -94 0
-75 -95 0
-76 -96 0
c nodes "figurePreN5-0-1-6-0" and "figurePreN5-0-1-12-0" may not have the same color
-73 -97 0
-74 -98 0
-75 -99 0
-76 -100 0
c nodes "figurePreN5-1-0-0-0" and "figurePreN5-1-0-1-0" may not have the same color
-101 -105 0
-102 -106 0
-103 -107 0
-104 -108 0
c nodes "figurePreN5-1-0-0-0" and "figurePreN5-1-0-2-0" may not have the same color
-101 -109 0
-102 -110 0
-103 -111 0
-104 -112 0
c nodes "figurePreN5-1-0-0-0" and "figurePreN5-1-0-3-0" may not have the same color
-101 -113 0
-102 -114 0
-103 -115 0
-104 -116 0
c nodes "figurePreN5-1-0-0-0" and "figurePreN5-1-0-5-0" may not have the same color
-101 -117 0
-102 -118 0
-103 -119 0
-104 -120 0
c nodes "figurePreN5-1-0-0-0" and "figurePreN5-1-0-6-0" may not have the same color
-101 -121 0
-102 -122 0
-103 -123 0
-104 -124 0
c nodes "figurePreN5-1-0-0-0" and "figurePreN5-1-1-1-0" may not have the same color
-101 -149 0
-102 -150 0
-103 -151 0
-104 -152 0
c nodes "figurePreN5-1-0-0-0" and "figurePreN5-1-1-2-0" may not have the same color
-101 -153 0
-102 -154 0
-103 -155 0
-104 -156 0
c nodes "figurePreN5-1-0-0-0" and "figurePreN5-1-1-3-0" may not have the same color
-101 -157 0
-102 -158 0
-103 -159 0
-104 -160 0
c nodes "figurePreN5-1-0-0-0" and "figurePreN5-1-1-4-0" may not have the same color
-101 -161 0
-102 -162 0
-103 -163 0
-104 -164 0
c nodes "figurePreN5-1-0-0-0" and "figurePreN5-1-1-5-0" may not have the same color
-101 -165 0
-102 -166 0
-103 -167 0
-104 -168 0
c nodes "figurePreN5-1-0-0-0" and "figurePreN5-1-1-6-0" may not have the same color
-101 -169 0
-102 -170 0
-103 -171 0
-104 -172 0
c nodes "figurePreN5-1-0-1-0" and "figurePreN5-1-0-2-0" may not have the same color
-105 -109 0
-106 -110 0
-107 -111 0
-108 -112 0
c nodes "figurePreN5-1-0-1-0" and "figurePreN5-1-0-6-0" may not have the same color
-105 -121 0
-106 -122 0
-107 -123 0
-108 -124 0
c nodes "figurePreN5-1-0-1-0" and "figurePreN5-1-0-7-0" may not have the same color
-105 -125 0
-106 -126 0
-107 -127 0
-108 -128 0
c nodes "figurePreN5-1-0-1-0" and "figurePreN5-1-0-12-0" may not have the same color
-105 -145 0
-106 -146 0
-107 -147 0
-108 -148 0
c nodes "figurePreN5-1-0-2-0" and "figurePreN5-1-0-3-0" may not have the same color
-109 -113 0
-110 -114 0
-111 -115 0
-112 -116 0
c nodes "figurePreN5-1-0-2-0" and "figurePreN5-1-0-7-0" may not have the same color
-109 -125 0
-110 -126 0
-111 -127 0
-112 -128 0
c nodes "figurePreN5-1-0-2-0" and "figurePreN5-1-0-8-0" may not have the same color
-109 -129 0
-110 -130 0
-111 -131 0
-112 -132 0
c nodes "figurePreN5-1-0-3-0" and "figurePreN5-1-0-8-0" may not have the same color
-113 -129 0
-114 -130 0
-115 -131 0
-116 -132 0
c nodes "figurePreN5-1-0-3-0" and "figurePreN5-1-0-9-0" may not have the same color
-113 -133 0
-114 -134 0
-115 -135 0
-116 -136 0
c nodes "figurePreN5-1-0-5-0" and "figurePreN5-1-0-6-0" may not have the same color
-117 -121 0
-118 -122 0
-119 -123 0
-120 -124 0
c nodes "figurePreN5-1-0-5-0" and "figurePreN5-1-0-10-0" may not have the same color
-117 -137 0
-118 -138 0
-119 -139 0
-120 -140 0
c nodes "figurePreN5-1-0-5-0" and "figurePreN5-1-0-11-0" may not have the same color
-117 -141 0
-118 -142 0
-119 -143 0
-120 -144 0
c nodes "figurePreN5-1-0-6-0" and "figurePreN5-1-0-11-0" may not have the same color
-121 -141 0
-122 -142 0
-123 -143 0
-124 -144 0
c nodes "figurePreN5-1-0-6-0" and "figurePreN5-1-0-12-0" may not have the same color
-121 -145 0
-122 -146 0
-123 -147 0
-124 -148 0
c nodes "figurePreN5-1-1-1-0" and "figurePreN5-1-1-2-0" may not have the same color
-149 -153 0
-150 -154 0
-151 -155 0
-152 -156 0
c nodes "figurePreN5-1-1-1-0" and "figurePreN5-1-1-6-0" may not have the same color
-149 -169 0
-150 -170 0
-151 -171 0
-152 -172 0
c nodes "figurePreN5-1-1-1-0" and "figurePreN5-1-1-7-0" may not have the same color
-149 -173 0
-150 -174 0
-151 -175 0
-152 -176 0
c nodes "figurePreN5-1-1-1-0" and "figurePreN5-1-1-12-0" may not have the same color
-149 -193 0
-150 -194 0
-151 -195 0
-152 -196 0
c nodes "figurePreN5-1-1-2-0" and "figurePreN5-1-1-3-0" may not have the same color
-153 -157 0
-154 -158 0
-155 -159 0
-156 -160 0
c nodes "figurePreN5-1-1-2-0" and "figurePreN5-1-1-7-0" may not have the same color
-153 -173 0
-154 -174 0
-155 -175 0
-156 -176 0
c nodes "figurePreN5-1-1-2-0" and "figurePreN5-1-1-8-0" may not have the same color
-153 -177 0
-154 -178 0
-155 -179 0
-156 -180 0
c nodes "figurePreN5-1-1-3-0" and "figurePreN5-1-1-4-0" may not have the same color
-157 -161 0
-158 -162 0
-159 -163 0
-160 -164 0
c nodes "figurePreN5-1-1-3-0" and "figurePreN5-1-1-8-0" may not have the same color
-157 -177 0
-158 -178 0
-159 -179 0
-160 -180 0
c nodes "figurePreN5-1-1-3-0" and "figurePreN5-1-1-9-0" may not have the same color
-157 -181 0
-158 -182 0
-159 -183 0
-160 -184 0
c nodes "figurePreN5-1-1-4-0" and "figurePreN5-1-1-5-0" may not have the same color
-161 -165 0
-162 -166 0
-163 -167 0
-164 -168 0
c nodes "figurePreN5-1-1-4-0" and "figurePreN5-1-1-9-0" may not have the same color
-161 -181 0
-162 -182 0
-163 -183 0
-164 -184 0
c nodes "figurePreN5-1-1-4-0" and "figurePreN5-1-1-10-0" may not have the same color
-161 -185 0
-162 -186 0
-163 -187 0
-164 -188 0
c nodes "figurePreN5-1-1-5-0" and "figurePreN5-1-1-6-0" may not have the same color
-165 -169 0
-166 -170 0
-167 -171 0
-168 -172 0
c nodes "figurePreN5-1-1-5-0" and "figurePreN5-1-1-10-0" may not have the same color
-165 -185 0
-166 -186 0
-167 -187 0
-168 -188 0
c nodes "figurePreN5-1-1-5-0" and "figurePreN5-1-1-11-0" may not have the same color
-165 -189 0
-166 -190 0
-167 -191 0
-168 -192 0
c nodes "figurePreN5-1-1-6-0" and "figurePreN5-1-1-11-0" may not have the same color
-169 -189 0
-170 -190 0
-171 -191 0
-172 -192 0
c nodes "figurePreN5-1-1-6-0" and "figurePreN5-1-1-12-0" may not have the same color
-169 -193 0
-170 -194 0
-171 -195 0
-172 -196 0